p cnf 27 294
1 4 7 10 13 16 19 22 25 0
2 5 8 11 14 17 20 23 26 0
3 6 9 12 15 18 21 24 27 0
-1 -5 0
-1 -6 0
-2 -4 0
-2 -6 0
-3 -4 0
-3 -5 0
-1 -11 0
-1 -12 0
-2 -10 0
-2 -12 0
-3 -10 0
-3 -11 0
-1 -17 0
-1 -18 0
-2 -16 0
-2 -18 0
-3 -16 0
-3 -17 0
-1 -20 0
-1 -21 0
-2 -19 0
-2 -21 0
-3 -19 0
-3 -20 0
-1 -23 0
-1 -24 0
-2 -22 0
-2 -24 0
-3 -22 0
-3 -23 0
-4 -8 0
-4 -9 0
-5 -7 0
-5 -9 0
-6 -7 0
-6 -8 0
-4 -14 0
-4 -15 0
-5 -13 0
-5 -15 0
-6 -13 0
-6 -14 0
-4 -17 0
-4 -18 0
-5 -16 0
-5 -18 0
-6 -16 0
-6 -17 0
-4 -23 0
-4 -24 0
-5 -22 0
-5 -24 0
-6 -22 0
-6 -23 0
-4 -26 0
-4 -27 0
-5 -25 0
-5 -27 0
-6 -25 0
-6 -26 0
-7 -11 0
-7 -12 0
-8 -10 0
-8 -12 0
-9 -10 0
-9 -11 0
-7 -17 0
-7 -18 0
-8 -16 0
-8 -18 0
-9 -16 0
-9 -17 0
-7 -20 0
-7 -21 0
-8 -19 0
-8 -21 0
-9 -19 0
-9 -20 0
-7 -23 0
-7 -24 0
-8 -22 0
-8 -24 0
-9 -22 0
-9 -23 0
-7 -26 0
-7 -27 0
-8 -25 0
-8 -27 0
-9 -25 0
-9 -26 0
-10 -14 0
-10 -15 0
-11 -13 0
-11 -15 0
-12 -13 0
-12 -14 0
-10 -20 0
-10 -21 0
-11 -19 0
-11 -21 0
-12 -19 0
-12 -20 0
-10 -23 0
-10 -24 0
-11 -22 0
-11 -24 0
-12 -22 0
-12 -23 0
-10 -26 0
-10 -27 0
-11 -25 0
-11 -27 0
-12 -25 0
-12 -26 0
-13 -17 0
-13 -18 0
-14 -16 0
-14 -18 0
-15 -16 0
-15 -17 0
-13 -20 0
-13 -21 0
-14 -19 0
-14 -21 0
-15 -19 0
-15 -20 0
-13 -23 0
-13 -24 0
-14 -22 0
-14 -24 0
-15 -22 0
-15 -23 0
-16 -20 0
-16 -21 0
-17 -19 0
-17 -21 0
-18 -19 0
-18 -20 0
-19 -23 0
-19 -24 0
-20 -22 0
-20 -24 0
-21 -22 0
-21 -23 0
-19 -26 0
-19 -27 0
-20 -25 0
-20 -27 0
-21 -25 0
-21 -26 0
-22 -26 0
-22 -27 0
-23 -25 0
-23 -27 0
-24 -25 0
-24 -26 0
-28 -5 0
-28 -6 0
-29 -4 0
-29 -6 0
-30 -4 0
-30 -5 0
-28 -8 0
-28 -9 0
-29 -7 0
-29 -9 0
-30 -7 0
-30 -8 0
-28 -11 0
-28 -12 0
-29 -10 0
-29 -12 0
-30 -10 0
-30 -11 0
-28 -14 0
-28 -15 0
-29 -13 0
-29 -15 0
-30 -13 0
-30 -14 0
-28 -17 0
-28 -18 0
-29 -16 0
-29 -18 0
-30 -16 0
-30 -17 0
-28 -20 0
-28 -21 0
-29 -19 0
-29 -21 0
-30 -19 0
-30 -20 0
-28 -23 0
-28 -24 0
-29 -22 0
-29 -24 0
-30 -22 0
-30 -23 0
-28 -26 0
-28 -27 0
-29 -25 0
-29 -27 0
-30 -25 0
-30 -26 0
-31 -8 0
-31 -9 0
-32 -7 0
-32 -9 0
-33 -7 0
-33 -8 0
-31 -11 0
-31 -12 0
-32 -10 0
-32 -12 0
-33 -10 0
-33 -11 0
-31 -14 0
-31 -15 0
-32 -13 0
-32 -15 0
-33 -13 0
-33 -14 0
-31 -17 0
-31 -18 0
-32 -16 0
-32 -18 0
-33 -16 0
-33 -17 0
-31 -20 0
-31 -21 0
-32 -19 0
-32 -21 0
-33 -19 0
-33 -20 0
-31 -23 0
-31 -24 0
-32 -22 0
-32 -24 0
-33 -22 0
-33 -23 0
-31 -26 0
-31 -27 0
-32 -25 0
-32 -27 0
-33 -25 0
-33 -26 0
-34 -11 0
-34 -12 0
-35 -10 0
-35 -12 0
-36 -10 0
-36 -11 0
-34 -14 0
-34 -15 0
-35 -13 0
-35 -15 0
-36 -13 0
-36 -14 0
-34 -17 0
-34 -18 0
-35 -16 0
-35 -18 0
-36 -16 0
-36 -17 0
-34 -20 0
-34 -21 0
-35 -19 0
-35 -21 0
-36 -19 0
-36 -20 0
-34 -23 0
-34 -24 0
-35 -22 0
-35 -24 0
-36 -22 0
-36 -23 0
-34 -26 0
-34 -27 0
-35 -25 0
-35 -27 0
-36 -25 0
-36 -26 0
-37 -14 0
-37 -15 0
-38 -13 0
-38 -15 0
-39 -13 0
-39 -14 0
-37 -17 0
-37 -18 0
-38 -16 0
-38 -18 0
-39 -16 0
-39 -17 0
-37 -20 0
-37 -21 0
-38 -19 0
-38 -21 0
-39 -19 0
-39 -20 0
-37 -23 0
-37 -24 0
-38 -22 0
-38 -24 0
-39 -22 0
-39 -23 0
-37 -26 0
-37 -27 0
-38 -25 0
-38 -27 0
-39 -25 0
-39 -26 0
-40 -17 0
-40 -18 0
-41 -16 0
-41 -18 0
-42 -16 0
-42 -17 0
-40 -20 0
-40 -21 0
-41 -19 0
-41 -21 0
-42 -19 0
-42 -20 0
-40 -23 0
-40 -24 0
-41 -22 0
-41 -24 0
-42 -22 0
-42 -23 0
-40 -26 0
-40 -27 0
-41 -25 0
-41 -27 0
-42 -25 0
-42 -26 0
-43 -20 0
-43 -21 0
-44 -19 0
-44 -21 0
-45 -19 0
-45 -20 0
-43 -23 0
-43 -24 0
-44 -22 0
-44 -24 0
-45 -22 0
-45 -23 0
-43 -26 0
-43 -27 0
-44 -25 0
-44 -27 0
-45 -25 0
-45 -26 0
-46 -23 0
-46 -24 0
-47 -22 0
-47 -24 0
-48 -22 0
-48 -23 0
-46 -26 0
-46 -27 0
-47 -25 0
-47 -27 0
-48 -25 0
-48 -26 0
-49 -26 0
-49 -27 0
-50 -25 0
-50 -27 0
-51 -25 0
-51 -26 0
-1 -4 0
-1 -7 0
-1 -10 0
-1 -13 0
-1 -16 0
-1 -19 0
-1 -22 0
-1 -25 0
-2 -5 0
-2 -8 0
-2 -11 0
-2 -14 0
-2 -17 0
-2 -20 0
-2 -23 0
-2 -26 0
-3 -6 0
-3 -9 0
-3 -12 0
-3 -15 0
-3 -18 0
-3 -21 0
-3 -24 0
-3 -27 0
-4 -7 0
-4 -10 0
-4 -13 0
-4 -16 0
-4 -19 0
-4 -22 0
-4 -25 0
-5 -8 0
-5 -11 0
-5 -14 0
-5 -17 0
-5 -20 0
-5 -23 0
-5 -26 0
-6 -9 0
-6 -12 0
-6 -15 0
-6 -18 0
-6 -21 0
-6 -24 0
-6 -27 0
-7 -10 0
-7 -13 0
-7 -16 0
-7 -19 0
-7 -22 0
-7 -25 0
-8 -11 0
-8 -14 0
-8 -17 0
-8 -20 0
-8 -23 0
-8 -26 0
-9 -12 0
-9 -15 0
-9 -18 0
-9 -21 0
-9 -24 0
-9 -27 0
-10 -13 0
-10 -16 0
-10 -19 0
-10 -22 0
-10 -25 0
-11 -14 0
-11 -17 0
-11 -20 0
-11 -23 0
-11 -26 0
-12 -15 0
-12 -18 0
-12 -21 0
-12 -24 0
-12 -27 0
-13 -16 0
-13 -19 0
-13 -22 0
-13 -25 0
-14 -17 0
-14 -20 0
-14 -23 0
-14 -26 0
-15 -18 0
-15 -21 0
-15 -24 0
-15 -27 0
-16 -19 0
-16 -22 0
-16 -25 0
-17 -20 0
-17 -23 0
-17 -26 0
-18 -21 0
-18 -24 0
-18 -27 0
-19 -22 0
-19 -25 0
-20 -23 0
-20 -26 0
-21 -24 0
-21 -27 0
-22 -25 0
-23 -26 0
-24 -27 0
-1 -2 0
-1 -3 0
-2 -3 0
-4 -5 0
-4 -6 0
-5 -6 0
-7 -8 0
-7 -9 0
-8 -9 0
-10 -11 0
-10 -12 0
-11 -12 0
-13 -14 0
-13 -15 0
-14 -15 0
-16 -17 0
-16 -18 0
-17 -18 0
-19 -20 0
-19 -21 0
-20 -21 0
-22 -23 0
-22 -24 0
-23 -24 0
-25 -26 0
-25 -27 0
-26 -27 0
